language ESSENCE' 1.0
$ loaded file: carseqdata/csplib-instance-18
letting numcars=200
letting numclasses=19
letting numoptions=5
letting optMax=[1, 2, 1, 2, 1]
letting windowSize=[2, 3, 3, 5, 5]
letting numberPerClass=[7, 56, 2, 2, 33, 39, 3, 1, 7, 1, 4, 1, 1, 24, 8, 7, 2, 1, 1]
letting optionsRequired=[[0, 1, 1, 0, 0], [0, 0, 0, 1, 0], [0, 1, 0, 1, 1], [1, 1, 1, 0, 0], [0, 0, 1, 0, 0], [1, 0, 0, 0, 0], [1, 0, 0, 0, 1], [1, 1, 0, 0, 1], [1, 1, 0, 0, 0], [0, 0, 1, 1, 0], [1, 0, 1, 0, 0], [1, 0, 1, 0, 1], [0, 1, 1, 1, 1], [0, 1, 0, 0, 0], [0, 1, 0, 1, 0], [0, 0, 0, 0, 1], [0, 1, 1, 1, 0], [1, 0, 0, 1, 0], [0, 0, 0, 1, 1]]
